(set-info :smt-lib-version 2.6)
(set-logic UF)
(set-info :source |Benchmarks from the paper: "Extending Sledgehammer with SMT Solvers" by Jasmin Blanchette, Sascha Bohme, and Lawrence C. Paulson, CADE 2011.  Translated to SMT2 by Andrew Reynolds and Morgan Deters.|)
(set-info :category "industrial")
(set-info :status unsat)
(declare-sort S1 0)
(declare-sort S2 0)
(declare-sort S3 0)
(declare-sort S4 0)
(declare-sort S5 0)
(declare-sort S6 0)
(declare-sort S7 0)
(declare-sort S8 0)
(declare-sort S9 0)
(declare-sort S10 0)
(declare-sort S11 0)
(declare-sort S12 0)
(declare-sort S13 0)
(declare-sort S14 0)
(declare-sort S15 0)
(declare-sort S16 0)
(declare-sort S17 0)
(declare-fun f1 () S1)
(declare-fun f2 () S1)
(declare-fun f3 (S4 S2) S1)
(declare-fun f4 (S5 S3) S4)
(declare-fun f5 (S2) S5)
(declare-fun f6 () S5)
(declare-fun f7 (S6 S7) S2)
(declare-fun f8 (S8 S9) S6)
(declare-fun f9 (S10 S2) S8)
(declare-fun f10 () S10)
(declare-fun f11 (S11) S9)
(declare-fun f12 () S11)
(declare-fun f13 (S12 S11) S7)
(declare-fun f14 (S13 S2) S12)
(declare-fun f15 () S13)
(declare-fun f16 (S14 S14) S1)
(declare-fun f17 (S16 S14) S14)
(declare-fun f18 (S17) S16)
(declare-fun f19 (S5 S15 S5) S17)
(declare-fun f20 () S14)
(declare-fun f21 () S14)
(declare-fun f22 () S5)
(declare-fun f23 () S15)
(assert (not (= f1 f2)))
(assert (forall ((?v0 S2) (?v1 S3) (?v2 S2)) (= (= (f3 (f4 (f5 ?v0) ?v1) ?v2) f1) (= (f3 (f4 f6 ?v1) (f7 (f8 (f9 f10 ?v2) (f11 f12)) (f13 (f14 f15 ?v0) f12))) f1))))
(assert (forall ((?v0 S14) (?v1 S5) (?v2 S15) (?v3 S5) (?v4 S5)) (=> (= (f16 ?v0 (f17 (f18 (f19 ?v1 ?v2 ?v3)) f20)) f1) (=> (forall ((?v5 S3) (?v6 S2)) (=> (= (f3 (f4 ?v3 ?v5) ?v6) f1) (= (f3 (f4 ?v4 ?v5) ?v6) f1))) (= (f16 ?v0 (f17 (f18 (f19 ?v1 ?v2 ?v4)) f20)) f1)))))
(assert (not (forall ((?v0 S2)) (=> (= (f16 f21 (f17 (f18 (f19 f22 f23 f6)) f20)) f1) (=> (forall ((?v1 S7) (?v2 S3) (?v3 S2)) (let ((?v_0 (f4 f6 ?v2))) (=> (= (f3 ?v_0 ?v3) f1) (= (f3 ?v_0 (f7 (f8 (f9 f10 ?v3) (f11 f12)) ?v1)) f1)))) (= (f16 f21 (f17 (f18 (f19 f22 f23 (f5 ?v0))) f20)) f1))))))
(check-sat)
(exit)
